p cnf 41 243
1 -29 0 
29 -1 14 15 16 18 22 23 25 26 27 28 0 
1 -28 2 3 4 5 6 7 8 0 
1 -27 2 3 4 5 6 7 8 0 
1 -26 2 3 4 5 6 7 8 0 
1 -25 3 0 
1 -18 2 3 4 5 6 7 8 0 
1 -16 2 3 4 5 6 7 8 0 
1 -15 2 3 4 5 6 7 8 0 
1 -14 2 3 4 5 6 7 8 0 
24 -8 14 15 16 17 18 19 20 21 22 23 27 26 28 0 
8 -21 2 5 6 7 4 0 
24 -7 14 15 16 17 18 19 20 21 22 23 27 26 28 0 
24 -6 14 15 16 17 18 19 20 21 22 23 27 26 28 0 
10 -13 9 0 
10 -12 9 0 
10 -11 9 0 
24 -4 14 15 16 17 18 19 20 21 22 23 27 26 28 0 
28 -3 14 15 16 17 18 19 20 22 23 24 25 26 27 0 
3 -24 5 6 7 4 8 2 0 
3 -20 5 6 7 4 8 2 0 
3 -19 5 6 7 4 8 2 0 
3 -17 5 6 7 4 8 2 0 
24 -2 14 15 16 17 18 19 20 21 22 23 27 26 28 0 
2 -23 3 4 5 6 7 8 0 
2 -22 3 4 5 6 7 8 0 
-2 -3 0 
-2 -4 0 
-2 -5 0 
-2 -6 0 
-2 -7 0 
-3 -4 0 
-2 -8 0 
-2 -9 0 
-3 -5 0 
-2 -10 0 
-2 -11 0 
-3 -6 0 
-2 -12 0 
-2 -13 0 
-3 -7 0 
-4 -5 0 
-3 -8 0 
-4 -6 0 
-3 -9 0 
-3 -10 0 
-4 -7 0 
-3 -11 0 
-5 -6 0 
-4 -8 0 
-3 -12 0 
-2 -25 0 
-3 -13 0 
-4 -9 0 
-5 -7 0 
-2 -28 0 
-4 -10 0 
-2 -29 0 
-5 -8 0 
-4 -11 0 
-6 -7 0 
-17 -3 0 
-5 -9 0 
-4 -12 0 
-6 -8 0 
-4 -13 0 
-5 -10 0 
-21 -3 0 
-5 -11 0 
-6 -9 0 
-2 -1 0 
1 2 3 4 5 6 7 8 9 10 0 
-7 -8 0 
-5 -12 0 
-6 -10 0 
-5 -13 0 
-7 -9 0 
-6 -11 0 
-7 -10 0 
-6 -12 0 
-3 -29 0 
-8 -9 0 
-6 -13 0 
-7 -11 0 
-8 -10 0 
-7 -12 0 
-8 -11 0 
-4 -25 0 
-7 -13 0 
-9 -10 0 
-8 -12 0 
-4 -28 0 
-3 -1 0 
1 3 -28 0 
-4 -29 0 
-8 -13 0 
-5 -25 0 
-9 -14 0 
-5 -28 0 
-11 -12 0 
-5 -29 0 
-15 -9 0 
-10 -14 0 
-6 -25 0 
-9 -16 0 
-11 -13 0 
-4 -1 0 
-15 -10 0 
-9 -17 0 
-11 -14 0 
-12 -13 0 
-6 -28 0 
-10 -16 0 
-18 -9 0 
-6 -29 0 
-11 -15 0 
-12 -14 0 
-7 -25 0 
-9 -19 0 
-10 -17 0 
-11 -16 0 
-9 -20 0 
-18 -10 0 
-12 -15 0 
-13 -14 0 
-9 -21 0 
-11 -17 0 
-7 -28 0 
-10 -19 0 
-5 -1 0 
-12 -16 0 
-7 -29 0 
-8 -25 0 
-9 -22 0 
-13 -15 0 
-11 -18 0 
-10 -20 0 
-23 -9 0 
-12 -17 0 
-10 -21 0 
-11 -19 0 
-13 -16 0 
-9 -24 0 
-12 -18 0 
-8 -28 0 
-10 -22 0 
-11 -20 0 
-9 -25 0 
-13 -17 0 
-14 -16 0 
-8 -29 0 
-23 -10 0 
-12 -19 0 
-9 -26 0 
-11 -21 0 
-13 -18 0 
-6 -1 0 
-10 -24 0 
-9 -27 0 
-12 -20 0 
-11 -22 0 
-15 -16 0 
-9 -28 0 
-10 -25 0 
-13 -19 0 
-11 -23 0 
-12 -21 0 
-9 -29 0 
-10 -26 0 
-13 -20 0 
-11 -24 0 
-12 -22 0 
-10 -27 0 
-11 -25 0 
-13 -21 0 
-12 -23 0 
-10 -28 0 
-7 -1 0 
-11 -26 0 
-10 -29 0 
-13 -22 0 
-12 -24 0 
-16 -18 0 
-11 -27 0 
-12 -25 0 
-13 -23 0 
-11 -28 0 
-12 -26 0 
-13 -24 0 
-12 -27 0 
-8 -1 0 
-13 -25 0 
-12 -28 0 
-13 -26 0 
-13 -27 0 
-13 -28 0 
-9 -1 0 
-19 -20 0 
-10 -1 0 
-17 -25 0 
-11 -1 0 
-28 -17 0 
-25 -19 0 
-17 -29 0 
-12 -1 0 
-25 -20 0 
-13 -1 0 
-25 -24 0 
-25 -26 0 
-25 -27 0 
-25 -28 0 
-17 -1 0 
-1 -19 0 
-1 -20 0 
-21 -1 0 
30 31 32 33 34 35 36 37 38 39 40 41 9 10 0 
-31 -32 0 
-1 -24 0 
-30 -34 0 
-31 -34 0 
-33 -32 0 
-31 -35 0 
-34 -32 0 
-31 -37 0 
-34 -35 0 
-39 -31 0 
-30 -41 0 
-40 -31 0 
-31 -41 0 
-40 -32 0 
-41 -32 0 
-39 -34 0 
-36 -37 0 
-33 -41 0 
-34 -40 0 
-34 -41 0 
-35 -41 0 
-36 -41 0 
-37 -41 0 
-38 -41 0 
-39 -40 0 
-39 -41 0 
-40 -41 0 
c p weight 1 0.536925 0
c p weight -1 0.463075 0
c p weight 2 0.429495 0
c p weight -2 0.570505 0
c p weight 3 0.472773 0
c p weight -3 0.527227 0
c p weight 4 0.554149 0
c p weight -4 0.445851 0
c p weight 5 0.473428 0
c p weight -5 0.526572 0
c p weight 6 0.495713 0
c p weight -6 0.504287 0
c p weight 7 0.464451 0
c p weight -7 0.535549 0
c p weight 8 0.437374 0
c p weight -8 0.562626 0
c p weight 9 0.556323 0
c p weight -9 0.443677 0
c p weight 10 0.597287 0
c p weight -10 0.402713 0
c p weight 11 0.517852 0
c p weight -11 0.482148 0
c p weight 12 0.507105 0
c p weight -12 0.492895 0
c p weight 13 0.566579 0
c p weight -13 0.433421 0
c p weight 14 0.499827 0
c p weight -14 0.500173 0
c p weight 15 0.525906 0
c p weight -15 0.474094 0
c p weight 16 0.421737 0
c p weight -16 0.578263 0
c p weight 17 0.505313 0
c p weight -17 0.494687 0
c p weight 18 0.54674 0
c p weight -18 0.453260 0
c p weight 19 0.453242 0
c p weight -19 0.546758 0
c p weight 20 0.490554 0
c p weight -20 0.509446 0
c p weight 21 0.448927 0
c p weight -21 0.551073 0
c p weight 22 0.478488 0
c p weight -22 0.521512 0
c p weight 23 0.441946 0
c p weight -23 0.558054 0
c p weight 24 0.455305 0
c p weight -24 0.544695 0
c p weight 25 0.530417 0
c p weight -25 0.469583 0
c p weight 26 0.469587 0
c p weight -26 0.530413 0
c p weight 27 0.56004 0
c p weight -27 0.439960 0
c p weight 28 0.418448 0
c p weight -28 0.581552 0
c p weight 29 0.535707 0
c p weight -29 0.464293 0
c p weight 30 0.45278 0
c p weight -30 0.547220 0
c p weight 31 0.498994 0
c p weight -31 0.501006 0
c p weight 32 0.388265 0
c p weight -32 0.611735 0
c p weight 33 0.479619 0
c p weight -33 0.520381 0
c p weight 34 0.491877 0
c p weight -34 0.508123 0
c p weight 35 0.509511 0
c p weight -35 0.490489 0
c p weight 36 0.552658 0
c p weight -36 0.447342 0
c p weight 37 0.510869 0
c p weight -37 0.489131 0
c p weight 38 0.534618 0
c p weight -38 0.465382 0
c p weight 39 0.460412 0
c p weight -39 0.539588 0
c p weight 40 0.448179 0
c p weight -40 0.551821 0
c p weight 41 0.578502 0
c p weight -41 0.421498 0
